MARKOV
635
 2 2 2 2 2 2 2 2 2 2 2 2 2 2 2 2 2 2 2 2 2 2 2 2 2 2 2 2 2 2 2 2 2 2 2 2 2 2 2 2 2 2 2 2 2 2 2 2 2 2 2 2 2 2 2 2 2 2 2 2 2 2 2 2 2 2 2 2 2 2 2 2 2 2 2 2 2 2 2 2 2 2 2 2 2 2 2 2 2 2 2 2 2 2 2 2 2 2 2 2 2 2 2 2 2 2 2 2 2 2 2 2 2 2 2 2 2 2 2 2 2 2 2 2 2 2 2 2 2 2 2 2 2 2 2 2 2 2 2 2 2 2 2 2 2 2 2 2 2 2 2 2 2 2 2 2 2 2 2 2 2 2 2 2 2 2 2 2 2 2 2 2 2 2 2 2 2 2 2 2 2 2 2 2 2 2 2 2 2 2 2 2 2 2 2 2 2 2 2 2 2 2 2 2 2 2 2 2 2 2 2 2 2 2 2 2 2 2 2 2 2 2 2 2 2 2 2 2 2 2 2 2 2 2 2 2 2 2 2 2 2 2 2 2 2 2 2 2 2 2 2 2 2 2 2 2 2 2 2 2 2 2 2 2 2 2 2 2 2 2 2 2 2 2 2 2 2 2 2 2 2 2 2 2 2 2 2 2 2 2 2 2 2 2 2 2 2 2 2 2 2 2 2 2 2 2 2 2 2 2 2 2 2 2 2 2 2 2 2 2 2 2 2 2 2 2 2 2 2 2 2 2 2 2 2 2 2 2 2 2 2 2 2 2 2 2 2 2 2 2 2 2 2 2 2 2 2 2 2 2 2 2 2 2 2 2 2 2 2 2 2 2 2 2 2 2 2 2 2 2 2 2 2 2 2 2 2 2 2 2 2 2 2 2 2 2 2 2 2 2 2 2 2 2 2 2 2 2 2 2 2 2 2 2 2 2 2 2 2 2 2 2 2 2 2 2 2 2 2 2 2 2 2 2 2 2 2 2 2 2 2 2 2 2 2 2 2 2 2 2 2 2 2 2 2 2 2 2 2 2 2 2 2 2 2 2 2 2 2 2 2 2 2 2 2 2 2 2 2 2 2 2 2 2 2 2 2 2 2 2 2 2 2 2 2 2 2 2 2 2 2 2 2 2 2 2 2 2 2 2 2 2 2 2 2 2 2 2 2 2 2 2 2 2 2 2 2 2 2 2 2 2 2 2 2 2 2 2 2 2 2 2 2 2 2 2 2 2 2 2 2 2 2 2 2 2 2 2 2 2 2 2 2 2 2 2 2 2 2 2 2 2 2 2 2 2 2 2 2 2 2 2 2 2 2 2 2 2 2 2 2 2 2 2 2 2 2 2 2 2 2 2 2 2 2 2 2 2 2 2 2 2 2 2 2 2 2 2 2 2 2 2 2 2 2 2 2 2 2 2 2 2 2 2 2
647
3	63 125 634 
3	186 633 634 
3	153 632 633 
1	632 
3	87 140 631 
3	71 630 631 
3	0 629 630 
3	145 628 629 
3	120 627 628 
3	178 626 627 
3	6 625 626 
3	86 624 625 
3	124 623 624 
3	27 622 623 
3	193 621 622 
3	191 620 621 
3	180 619 620 
3	183 618 619 
3	62 617 618 
3	139 616 617 
3	115 615 616 
3	51 614 615 
3	8 613 614 
3	160 612 613 
3	138 611 612 
3	175 610 611 
3	13 609 610 
3	155 608 609 
3	131 607 608 
3	181 606 607 
3	98 605 606 
3	52 604 605 
3	109 603 604 
3	185 602 603 
3	157 601 602 
3	74 600 601 
3	152 599 600 
3	65 598 599 
3	7 597 598 
3	104 596 597 
3	122 595 596 
3	97 594 595 
3	106 593 594 
3	166 592 593 
3	170 591 592 
3	69 590 591 
3	96 589 590 
3	144 588 589 
3	130 587 588 
3	105 586 587 
3	70 585 586 
3	137 584 585 
3	72 583 584 
3	17 582 583 
3	20 581 582 
3	67 580 581 
3	73 579 580 
3	177 578 579 
3	128 577 578 
3	108 576 577 
3	82 575 576 
3	119 574 575 
3	40 573 574 
3	187 572 573 
3	4 571 572 
3	161 570 571 
3	114 569 570 
3	126 568 569 
3	99 567 568 
3	107 566 567 
3	127 565 566 
3	190 564 565 
3	64 563 564 
3	94 562 563 
3	44 561 562 
3	146 560 561 
3	142 559 560 
3	10 558 559 
3	5 557 558 
3	33 556 557 
3	81 555 556 
3	159 554 555 
3	77 553 554 
3	112 552 553 
3	111 551 552 
3	118 550 551 
3	39 549 550 
3	101 548 549 
1	548 
3	63 186 547 
1	547 
3	47 55 546 
3	3 545 546 
3	78 544 545 
3	183 543 544 
3	14 542 543 
3	59 541 542 
3	116 540 541 
3	64 539 540 
3	167 538 539 
3	85 537 538 
3	186 536 537 
3	77 535 536 
3	67 534 535 
3	2 533 534 
3	29 532 533 
3	38 531 532 
3	127 530 531 
3	189 529 530 
1	529 
3	71 87 528 
3	145 527 528 
3	0 526 527 
3	120 525 526 
3	105 524 525 
3	137 523 524 
3	124 522 523 
3	76 521 522 
3	73 520 521 
3	67 519 520 
3	29 518 519 
3	191 517 518 
3	177 516 517 
3	129 515 516 
3	21 514 515 
3	92 513 514 
3	163 512 513 
3	54 511 512 
3	180 510 511 
3	128 509 510 
3	108 508 509 
3	183 507 508 
3	49 506 507 
3	62 505 506 
3	116 504 505 
3	119 503 504 
3	40 502 503 
3	114 501 502 
3	160 500 501 
3	127 499 500 
3	175 498 499 
3	13 497 498 
3	155 496 497 
3	131 495 496 
3	78 494 495 
3	174 493 494 
3	98 492 493 
3	94 491 492 
3	157 490 491 
3	65 489 490 
3	146 488 489 
3	142 487 488 
3	10 486 487 
3	5 485 486 
3	3 484 485 
3	33 483 484 
3	59 482 483 
3	162 481 482 
3	100 480 481 
3	106 479 480 
3	186 478 479 
3	81 477 478 
3	166 476 477 
3	77 475 476 
3	111 474 475 
3	118 473 474 
3	148 472 473 
3	101 471 472 
1	471 
3	2 63 470 
3	186 469 470 
3	21 468 469 
1	468 
3	47 55 467 
3	3 466 467 
3	78 465 466 
3	183 464 465 
3	14 463 464 
3	59 462 463 
3	64 461 462 
3	116 460 461 
3	167 459 460 
3	85 458 459 
3	186 457 458 
3	77 456 457 
3	67 455 456 
3	2 454 455 
3	29 453 454 
3	38 452 453 
3	127 451 452 
3	189 450 451 
3	163 449 450 
1	449 
3	71 87 448 
3	0 447 448 
3	145 446 447 
3	120 445 446 
3	105 444 445 
3	137 443 444 
3	124 442 443 
3	67 441 442 
3	73 440 441 
3	191 439 440 
3	177 438 439 
3	128 437 438 
3	180 436 437 
3	108 435 436 
3	183 434 435 
3	62 433 434 
3	119 432 433 
3	40 431 432 
3	139 430 431 
3	114 429 430 
3	160 428 429 
3	127 427 428 
3	175 426 427 
3	13 425 426 
3	155 424 425 
3	131 423 424 
3	94 422 423 
3	157 421 422 
3	146 420 421 
3	65 419 420 
3	142 418 419 
3	10 417 418 
3	5 416 417 
3	33 415 416 
3	106 414 415 
3	81 413 414 
3	166 412 413 
3	77 411 412 
3	111 410 411 
3	118 409 410 
3	101 408 409 
1	408 
3	54 162 407 
3	137 406 407 
3	191 405 406 
1	405 
3	71 87 404 
3	0 403 404 
3	145 402 403 
3	120 401 402 
3	105 400 401 
3	137 399 400 
3	124 398 399 
3	67 397 398 
3	73 396 397 
3	191 395 396 
3	177 394 395 
3	128 393 394 
3	180 392 393 
3	108 391 392 
3	183 390 391 
3	62 389 390 
3	119 388 389 
3	40 387 388 
3	114 386 387 
3	160 385 386 
3	127 384 385 
3	175 383 384 
3	13 382 383 
3	155 381 382 
3	131 380 381 
3	94 379 380 
3	157 378 379 
3	146 377 378 
3	65 376 377 
3	142 375 376 
3	10 374 375 
3	5 373 374 
3	33 372 373 
3	106 371 372 
3	81 370 371 
3	166 369 370 
3	77 368 369 
3	111 367 368 
3	118 366 367 
3	101 365 366 
1	365 
3	140 145 364 
3	45 363 364 
3	60 362 363 
3	168 361 362 
3	76 360 361 
3	27 359 360 
3	30 358 359 
3	191 357 358 
3	61 356 357 
3	180 355 356 
3	121 354 355 
3	102 353 354 
3	24 352 353 
3	91 351 352 
3	83 350 351 
3	19 349 350 
3	141 348 349 
3	160 347 348 
3	175 346 347 
3	155 345 346 
3	131 344 345 
3	98 343 344 
3	174 342 343 
3	164 341 342 
3	52 340 341 
3	171 339 340 
3	157 338 339 
3	63 337 338 
3	74 336 337 
3	66 335 336 
3	162 334 335 
3	59 333 334 
3	34 332 333 
3	12 331 332 
3	69 330 331 
3	96 329 330 
3	158 328 329 
3	70 327 328 
3	167 326 327 
3	133 325 326 
3	26 324 325 
3	48 323 324 
3	137 322 323 
3	72 321 322 
3	188 320 321 
3	57 319 320 
3	50 318 319 
3	73 317 318 
3	31 316 317 
3	177 315 316 
3	92 314 315 
3	103 313 314 
3	172 312 313 
3	54 311 312 
3	55 310 311 
3	108 309 310 
3	49 308 309 
3	9 307 308 
3	93 306 307 
3	41 305 306 
3	40 304 305 
3	182 303 304 
3	154 302 303 
3	149 301 302 
3	126 300 301 
3	16 299 300 
3	38 298 299 
3	2 297 298 
3	127 296 297 
3	36 295 296 
3	95 294 295 
3	47 293 294 
3	132 292 293 
3	15 291 292 
3	64 290 291 
3	80 289 290 
3	151 288 289 
3	173 287 288 
3	142 286 287 
3	58 285 286 
3	5 284 285 
3	113 283 284 
3	43 282 283 
3	37 281 282 
3	110 280 281 
3	81 279 280 
3	77 278 279 
3	179 277 278 
3	68 276 277 
3	148 275 276 
3	123 274 275 
3	87 273 274 
3	90 272 273 
3	71 271 272 
3	35 270 271 
3	0 269 270 
3	120 268 269 
3	178 267 268 
3	42 266 267 
3	25 265 266 
3	124 264 265 
3	176 263 264 
3	29 262 263 
3	147 261 262 
3	184 260 261 
3	21 259 260 
3	163 258 259 
3	183 257 258 
3	116 256 257 
3	62 255 256 
3	139 254 255 
3	84 253 254 
3	165 252 253 
3	136 251 252 
3	169 250 251 
3	13 249 250 
3	46 248 249 
3	79 247 248 
3	185 246 247 
3	117 245 246 
3	23 244 245 
3	88 243 244 
3	152 242 243 
3	65 241 242 
3	104 240 241 
3	135 239 240 
3	122 238 239 
3	100 237 238 
3	97 236 237 
3	106 235 236 
3	85 234 235 
3	53 233 234 
3	186 232 233 
3	134 231 232 
3	166 230 231 
3	144 229 230 
3	75 228 229 
3	156 227 228 
3	89 226 227 
3	105 225 226 
3	192 224 225 
3	143 223 224 
3	1 222 223 
3	17 221 222 
3	22 220 221 
3	20 219 220 
3	67 218 219 
3	129 217 218 
3	128 216 217 
3	14 215 216 
3	119 214 215 
3	187 213 214 
3	150 212 213 
3	114 211 212 
3	99 210 211 
3	78 209 210 
3	190 208 209 
3	94 207 208 
3	56 206 207 
3	32 205 206 
3	28 204 205 
3	146 203 204 
3	11 202 203 
3	10 201 202 
3	3 200 201 
3	33 199 200 
3	18 198 199 
3	111 197 198 
3	118 196 197 
3	39 195 196 
3	101 194 195 
1	194 
1	140 
1	145 
1	6 
1	45 
1	60 
1	168 
1	27 
1	76 
1	30 
1	191 
1	61 
1	180 
1	121 
1	102 
1	24 
1	91 
1	83 
1	19 
1	160 
1	141 
1	138 
1	175 
1	155 
1	131 
1	98 
1	174 
1	125 
1	164 
1	52 
1	171 
1	157 
1	63 
1	74 
1	7 
1	66 
1	59 
1	162 
1	34 
1	12 
1	170 
1	69 
1	96 
1	158 
1	130 
1	189 
1	70 
1	167 
1	133 
1	26 
1	48 
1	72 
1	137 
1	188 
1	57 
1	50 
1	73 
1	31 
1	177 
1	92 
1	103 
1	172 
1	55 
1	54 
1	108 
1	49 
1	9 
1	93 
1	40 
1	41 
1	182 
1	154 
1	149 
1	161 
1	4 
1	126 
1	107 
1	16 
1	2 
1	38 
1	127 
1	36 
1	95 
1	47 
1	132 
1	64 
1	15 
1	80 
1	151 
1	173 
1	142 
1	58 
1	5 
1	113 
1	43 
1	37 
1	110 
1	81 
1	77 
1	179 
1	68 
1	148 
1	123 
1	87 
1	71 
1	90 
1	0 
1	35 
1	120 
1	178 
1	42 
1	86 
1	25 
1	124 
1	176 
1	193 
1	29 
1	147 
1	184 
1	21 
1	163 
1	183 
1	62 
1	116 
1	139 
1	115 
1	51 
1	8 
1	84 
1	165 
1	136 
1	169 
1	13 
1	181 
1	46 
1	109 
1	79 
1	153 
1	185 
1	117 
1	88 
1	23 
1	152 
1	65 
1	104 
1	135 
1	122 
1	100 
1	97 
1	53 
1	106 
1	85 
1	186 
1	134 
1	166 
1	144 
1	75 
1	156 
1	89 
1	105 
1	192 
1	143 
1	1 
1	17 
1	22 
1	20 
1	67 
1	129 
1	128 
1	14 
1	82 
1	187 
1	119 
1	150 
1	114 
1	99 
1	190 
1	78 
1	94 
1	56 
1	44 
1	32 
1	28 
1	146 
1	11 
1	10 
1	3 
1	33 
1	159 
1	18 
1	112 
1	111 
1	118 
1	39 
1	101 
0	

8
 1 0 0.5 0.5 0.3 0.7 0.15 0.85
8
 1 0 0 1 0.05 0 0.95 1
8
 1 0 0 1 0.5 0 0.5 1
2
 0.03 1
8
 1 0 0.9 0.1 0.05 0.95 0.045 0.955
8
 1 0 0 1 0.9 0 0.1 1
8
 1 0 0 1 0.05 0 0.95 1
8
 1 0 0 1 0.05 0 0.95 1
8
 1 0 0 1 0.05 0 0.95 1
8
 1 0 0 1 0.9 0 0.1 1
8
 1 0 0 1 0.3 0 0.7 1
8
 1 0 0 1 0.3 0 0.7 1
8
 1 0 0 1 0.1 0 0.9 1
8
 1 0 0 1 0.9 0 0.1 1
8
 1 0 0 1 0.3 0 0.7 1
8
 1 0 0 1 0.05 0 0.95 1
8
 1 0 0 1 0.05 0 0.95 1
8
 1 0 0 1 0.05 0 0.95 1
8
 1 0 0 1 0.05 0 0.95 1
8
 1 0 0 1 0.5 0 0.5 1
8
 1 0 0 1 0.3 0 0.7 1
8
 1 0 0 1 0.5 0 0.5 1
8
 1 0 0 1 0.9 0 0.1 1
8
 1 0 0 1 0.05 0 0.95 1
8
 1 0 0 1 0.3 0 0.7 1
8
 1 0 0 1 0.05 0 0.95 1
8
 1 0 0 1 0.05 0 0.95 1
8
 1 0 0 1 0.05 0 0.95 1
8
 1 0 0 1 0.05 0 0.95 1
8
 1 0 0 1 0.5 0 0.5 1
8
 1 0 0 1 0.4 0 0.6 1
8
 1 0 0 1 0.9 0 0.1 1
8
 1 0 0 1 0.5 0 0.5 1
8
 1 0 0 1 0.7 0 0.3 1
8
 1 0 0 1 0.01 0 0.99 1
8
 1 0 0 1 0.9 0 0.1 1
8
 1 0 0 1 0.9 0 0.1 1
8
 1 0 0 1 0.05 0 0.95 1
8
 1 0 0 1 0.4 0 0.6 1
8
 1 0 0 1 0.9 0 0.1 1
8
 1 0 0 1 0.9 0 0.1 1
8
 1 0 0 1 0.75 0 0.25 1
8
 1 0 0 1 0.05 0 0.95 1
8
 1 0 0 1 0.05 0 0.95 1
8
 1 0 0 1 0.3 0 0.7 1
8
 1 0 0 1 0.9 0 0.1 1
8
 1 0 0 1 0.5 0 0.5 1
8
 1 0 0 1 0.9 0 0.1 1
8
 1 0 0 1 0.3 0 0.7 1
8
 1 0 0 1 0.05 0 0.95 1
8
 1 0 0 1 0.9 0 0.1 1
8
 1 0 0 1 0.5 0 0.5 1
8
 1 0 0 1 0.9 0 0.1 1
8
 1 0 0 1 0.9 0 0.1 1
8
 1 0 0 1 0.9 0 0.1 1
8
 1 0 0 1 0.05 0 0.95 1
8
 1 0 0 1 0.05 0 0.95 1
8
 1 0 0 1 0.05 0 0.95 1
8
 1 0 0 1 0.05 0 0.95 1
8
 1 0 0 1 0.05 0 0.95 1
8
 1 0 0 1 0.3 0 0.7 1
8
 1 0 0 1 0.05 0 0.95 1
8
 1 0 0 1 0.05 0 0.95 1
8
 1 0 0 1 0.9 0 0.1 1
8
 1 0 0 1 0.3 0 0.7 1
8
 1 0 0 1 0.5 0 0.5 1
8
 1 0 0 1 0.05 0 0.95 1
8
 1 0 0 1 0.1 0 0.9 1
8
 1 0 0 1 0.9 0 0.1 1
8
 1 0 0 1 0.89 0 0.11 1
8
 1 0 0 1 0.05 0 0.95 1
8
 1 0 0 1 0.9 0 0.1 1
8
 1 0 0 1 0.89 0 0.11 1
8
 1 0 0 1 0.05 0 0.95 1
8
 1 0 0 1 0.09 0 0.91 1
8
 1 0 0 1 0.05 0 0.95 1
8
 1 0 0 1 0.02 0 0.98 1
8
 1 0 0 1 0.05 0 0.95 1
8
 1 0 0 1 0.2 0 0.8 1
8
 1 0 0 1 0.05 0 0.95 1
8
 1 0 0 1 0.05 0 0.95 1
8
 1 0 0 1 0.3 0 0.7 1
8
 1 0 0 1 0.05 0 0.95 1
8
 1 0 0 1 0.4 0 0.6 1
8
 1 0 0 1 0.05 0 0.95 1
8
 1 0 0 1 0.05 0 0.95 1
8
 1 0 0 1 0.9 0 0.1 1
8
 1 0 0 1 0.05 0 0.95 1
2
 0.03 1
8
 1 0 0.2 0.8 0.3 0.7 0.06 0.94
2
 0.03 1
8
 1 0 0.57 0.43 0.5 0.5 0.285 0.715
8
 1 0 0 1 0.1 0 0.9 1
8
 1 0 0 1 0 0 1 1
8
 1 0 0 1 0.09 0 0.91 1
8
 1 0 0 1 0.5 0 0.5 1
8
 1 0 0 1 0.1 0 0.9 1
8
 1 0 0 1 0 0 1 1
8
 1 0 0 1 0.5 0 0.5 1
8
 1 0 0 1 0.5 0 0.5 1
8
 1 0 0 1 0.5 0 0.5 1
8
 1 0 0 1 0 0 1 1
8
 1 0 0 1 0.01 0 0.99 1
8
 1 0 0 1 0.5 0 0.5 1
8
 1 0 0 1 0.5 0 0.5 1
8
 1 0 0 1 0 0 1 1
8
 1 0 0 1 0.4 0 0.6 1
8
 1 0 0 1 0.1 0 0.9 1
8
 1 0 0 1 0.01 0 0.99 1
2
 0.03 1
8
 1 0 0 1 0 1 0 1
8
 1 0 0 1 0 0 1 1
8
 1 0 0 1 0 0 1 1
8
 1 0 0 1 0 0 1 1
8
 1 0 0 1 0 0 1 1
8
 1 0 0 1 0 0 1 1
8
 1 0 0 1 0 0 1 1
8
 1 0 0 1 0 0 1 1
8
 1 0 0 1 0 0 1 1
8
 1 0 0 1 0 0 1 1
8
 1 0 0 1 0 0 1 1
8
 1 0 0 1 0 0 1 1
8
 1 0 0 1 0 0 1 1
8
 1 0 0 1 0 0 1 1
8
 1 0 0 1 0 0 1 1
8
 1 0 0 1 0 0 1 1
8
 1 0 0 1 0 0 1 1
8
 1 0 0 1 0 0 1 1
8
 1 0 0 1 0 0 1 1
8
 1 0 0 1 0 0 1 1
8
 1 0 0 1 0 0 1 1
8
 1 0 0 1 0 0 1 1
8
 1 0 0 1 0 0 1 1
8
 1 0 0 1 0 0 1 1
8
 1 0 0 1 0 0 1 1
8
 1 0 0 1 0 0 1 1
8
 1 0 0 1 0 0 1 1
8
 1 0 0 1 0 0 1 1
8
 1 0 0 1 0 0 1 1
8
 1 0 0 1 0 0 1 1
8
 1 0 0 1 0 0 1 1
8
 1 0 0 1 0 0 1 1
8
 1 0 0 1 0 0 1 1
8
 1 0 0 1 0 0 1 1
8
 1 0 0 1 0 0 1 1
8
 1 0 0 1 0 0 1 1
8
 1 0 0 1 0 0 1 1
8
 1 0 0 1 0 0 1 1
8
 1 0 0 1 0 0 1 1
8
 1 0 0 1 0 0 1 1
8
 1 0 0 1 0 0 1 1
8
 1 0 0 1 0 0 1 1
8
 1 0 0 1 0 0 1 1
8
 1 0 0 1 0 0 1 1
8
 1 0 0 1 0 0 1 1
8
 1 0 0 1 0 0 1 1
8
 1 0 0 1 0 0 1 1
8
 1 0 0 1 0 0 1 1
8
 1 0 0 1 0 0 1 1
8
 1 0 0 1 0 0 1 1
8
 1 0 0 1 0 0 1 1
8
 1 0 0 1 0 0 1 1
8
 1 0 0 1 0 0 1 1
8
 1 0 0 1 0 0 1 1
8
 1 0 0 1 0 0 1 1
8
 1 0 0 1 0 0 1 1
8
 1 0 0 1 0 0 1 1
8
 1 0 0 1 0 0 1 1
2
 0.03 1
8
 1 0 0.3 0.7 0.5 0.5 0.15 0.85
8
 1 0 0 1 0 0 1 1
8
 1 0 0 1 0.01 0 0.99 1
2
 0.03 1
8
 1 0 0.57 0.43 0.5 0.5 0.285 0.715
8
 1 0 0 1 0.1 0 0.9 1
8
 1 0 0 1 0.01 0 0.99 1
8
 1 0 0 1 0.09 0 0.91 1
8
 1 0 0 1 0.5 0 0.5 1
8
 1 0 0 1 0.1 0 0.9 1
8
 1 0 0 1 0.5 0 0.5 1
8
 1 0 0 1 0.01 0 0.99 1
8
 1 0 0 1 0.5 0 0.5 1
8
 1 0 0 1 0.5 0 0.5 1
8
 1 0 0 1 0.05 0 0.95 1
8
 1 0 0 1 0.01 0 0.99 1
8
 1 0 0 1 0.5 0 0.5 1
8
 1 0 0 1 0.5 0 0.5 1
8
 1 0 0 1 0.01 0 0.99 1
8
 1 0 0 1 0.4 0 0.6 1
8
 1 0 0 1 0.1 0 0.9 1
8
 1 0 0 1 0.01 0 0.99 1
8
 1 0 0 1 0.2 0 0.8 1
2
 0.03 1
8
 1 0 0.05 0.95 0.05 0.95 0.0025 0.9975
8
 1 0 0 1 0.05 0 0.95 1
8
 1 0 0 1 0.05 0 0.95 1
8
 1 0 0 1 0.05 0 0.95 1
8
 1 0 0 1 0.05 0 0.95 1
8
 1 0 0 1 0.5 0 0.5 1
8
 1 0 0 1 0.05 0 0.95 1
8
 1 0 0 1 0.05 0 0.95 1
8
 1 0 0 1 0.05 0 0.95 1
8
 1 0 0 1 0.05 0 0.95 1
8
 1 0 0 1 0.05 0 0.95 1
8
 1 0 0 1 0.05 0 0.95 1
8
 1 0 0 1 0.05 0 0.95 1
8
 1 0 0 1 0.05 0 0.95 1
8
 1 0 0 1 0.05 0 0.95 1
8
 1 0 0 1 0.01 0 0.99 1
8
 1 0 0 1 0.05 0 0.95 1
8
 1 0 0 1 0.05 0 0.95 1
8
 1 0 0 1 0.5 0 0.5 1
8
 1 0 0 1 0.05 0 0.95 1
8
 1 0 0 1 0.05 0 0.95 1
8
 1 0 0 1 0.05 0 0.95 1
8
 1 0 0 1 0.05 0 0.95 1
8
 1 0 0 1 0.05 0 0.95 1
8
 1 0 0 1 0.05 0 0.95 1
8
 1 0 0 1 0.05 0 0.95 1
8
 1 0 0 1 0.05 0 0.95 1
8
 1 0 0 1 0.1 0 0.9 1
8
 1 0 0 1 0.05 0 0.95 1
8
 1 0 0 1 0.05 0 0.95 1
8
 1 0 0 1 0.05 0 0.95 1
8
 1 0 0 1 0.05 0 0.95 1
8
 1 0 0 1 0.05 0 0.95 1
8
 1 0 0 1 0.05 0 0.95 1
8
 1 0 0 1 0.05 0 0.95 1
8
 1 0 0 1 0.05 0 0.95 1
8
 1 0 0 1 0.05 0 0.95 1
8
 1 0 0 1 0.05 0 0.95 1
8
 1 0 0 1 0.05 0 0.95 1
8
 1 0 0 1 0.05 0 0.95 1
8
 1 0 0 1 0.05 0 0.95 1
2
 0.03 1
8
 1 0 0 1 0 1 0 1
8
 1 0 0 1 0 0 1 1
8
 1 0 0 1 0 0 1 1
2
 0.03 1
8
 1 0 0.05 0.95 0.05 0.95 0.0025 0.9975
8
 1 0 0 1 0.05 0 0.95 1
8
 1 0 0 1 0.05 0 0.95 1
8
 1 0 0 1 0.05 0 0.95 1
8
 1 0 0 1 0.05 0 0.95 1
8
 1 0 0 1 0.05 0 0.95 1
8
 1 0 0 1 0.05 0 0.95 1
8
 1 0 0 1 0.05 0 0.95 1
8
 1 0 0 1 0.05 0 0.95 1
8
 1 0 0 1 0.05 0 0.95 1
8
 1 0 0 1 0.05 0 0.95 1
8
 1 0 0 1 0.05 0 0.95 1
8
 1 0 0 1 0.05 0 0.95 1
8
 1 0 0 1 0.05 0 0.95 1
8
 1 0 0 1 0.05 0 0.95 1
8
 1 0 0 1 0.05 0 0.95 1
8
 1 0 0 1 0.05 0 0.95 1
8
 1 0 0 1 0.05 0 0.95 1
8
 1 0 0 1 0.05 0 0.95 1
8
 1 0 0 1 0.05 0 0.95 1
8
 1 0 0 1 0.05 0 0.95 1
8
 1 0 0 1 0.05 0 0.95 1
8
 1 0 0 1 0.05 0 0.95 1
8
 1 0 0 1 0.05 0 0.95 1
8
 1 0 0 1 0.05 0 0.95 1
8
 1 0 0 1 0.05 0 0.95 1
8
 1 0 0 1 0.05 0 0.95 1
8
 1 0 0 1 0.05 0 0.95 1
8
 1 0 0 1 0.05 0 0.95 1
8
 1 0 0 1 0.05 0 0.95 1
8
 1 0 0 1 0.05 0 0.95 1
8
 1 0 0 1 0.05 0 0.95 1
8
 1 0 0 1 0.05 0 0.95 1
8
 1 0 0 1 0.05 0 0.95 1
8
 1 0 0 1 0.05 0 0.95 1
8
 1 0 0 1 0.05 0 0.95 1
8
 1 0 0 1 0.05 0 0.95 1
8
 1 0 0 1 0.05 0 0.95 1
8
 1 0 0 1 0.05 0 0.95 1
8
 1 0 0 1 0.05 0 0.95 1
2
 0.03 1
8
 1 0 0 1 0.9 0.1 0 1
8
 1 0 0 1 0.2 0 0.8 1
8
 1 0 0 1 0.4 0 0.6 1
8
 1 0 0 1 0.5 0 0.5 1
8
 1 0 0 1 0 0 1 1
8
 1 0 0 1 0.9 0 0.1 1
8
 1 0 0 1 0.5 0 0.5 1
8
 1 0 0 1 0.89 0 0.11 1
8
 1 0 0 1 0.5 0 0.5 1
8
 1 0 0 1 0 0 1 1
8
 1 0 0 1 0.89 0 0.11 1
8
 1 0 0 1 0.5 0 0.5 1
8
 1 0 0 1 0.4 0 0.6 1
8
 1 0 0 1 0.1 0 0.9 1
8
 1 0 0 1 0.5 0 0.5 1
8
 1 0 0 1 0.5 0 0.5 1
8
 1 0 0 1 0.1 0 0.9 1
8
 1 0 0 1 0 0 1 1
8
 1 0 0 1 0.5 0 0.5 1
8
 1 0 0 1 0.01 0 0.99 1
8
 1 0 0 1 0 0 1 1
8
 1 0 0 1 0 0 1 1
8
 1 0 0 1 0 0 1 1
8
 1 0 0 1 0.5 0 0.5 1
8
 1 0 0 1 0.9 0 0.1 1
8
 1 0 0 1 0.5 0 0.5 1
8
 1 0 0 1 0 0 1 1
8
 1 0 0 1 0.5 0 0.5 1
8
 1 0 0 1 0.9 0 0.1 1
8
 1 0 0 1 0.5 0 0.5 1
8
 1 0 0 1 0.1 0 0.9 1
8
 1 0 0 1 0 0 1 1
8
 1 0 0 1 0.1 0 0.9 1
8
 1 0 0 1 0.5 0 0.5 1
8
 1 0 0 1 0.9 0 0.1 1
8
 1 0 0 1 0.5 0 0.5 1
8
 1 0 0 1 0.5 0 0.5 1
8
 1 0 0 1 0.9 0 0.1 1
8
 1 0 0 1 0.09 0 0.91 1
8
 1 0 0 1 0.5 0 0.5 1
8
 1 0 0 1 0.1 0 0.9 1
8
 1 0 0 1 0.5 0 0.5 1
8
 1 0 0 1 0.5 0 0.5 1
8
 1 0 0 1 0.9 0 0.1 1
8
 1 0 0 1 0.09 0 0.91 1
8
 1 0 0 1 0.5 0 0.5 1
8
 1 0 0 1 0.5 0 0.5 1
8
 1 0 0 1 0 0 1 1
8
 1 0 0 1 0.5 0 0.5 1
8
 1 0 0 1 0 0 1 1
8
 1 0 0 1 0 0 1 1
8
 1 0 0 1 0.5 0 0.5 1
8
 1 0 0 1 0.1 0 0.9 1
8
 1 0 0 1 0.5 0 0.5 1
8
 1 0 0 1 0.57 0 0.43 1
8
 1 0 0 1 0 0 1 1
8
 1 0 0 1 0 0 1 1
8
 1 0 0 1 0.5 0 0.5 1
8
 1 0 0 1 0.5 0 0.5 1
8
 1 0 0 1 0.9 0 0.1 1
8
 1 0 0 1 0 0 1 1
8
 1 0 0 1 0.5 0 0.5 1
8
 1 0 0 1 0.1 0 0.9 1
8
 1 0 0 1 0.5 0 0.5 1
8
 1 0 0 1 0.1 0 0.9 1
8
 1 0 0 1 0.5 0 0.5 1
8
 1 0 0 1 0.4 0 0.6 1
8
 1 0 0 1 0.5 0 0.5 1
8
 1 0 0 1 0 0 1 1
8
 1 0 0 1 0.5 0 0.5 1
8
 1 0 0 1 0.9 0 0.1 1
8
 1 0 0 1 0.5 0 0.5 1
8
 1 0 0 1 0.89 0 0.11 1
8
 1 0 0 1 0.5 0 0.5 1
8
 1 0 0 1 0.5 0 0.5 1
8
 1 0 0 1 0.5 0 0.5 1
8
 1 0 0 1 0.4 0 0.6 1
8
 1 0 0 1 0.5 0 0.5 1
8
 1 0 0 1 0 0 1 1
8
 1 0 0 1 0.1 0 0.9 1
8
 1 0 0 1 0.6 0 0.4 1
8
 1 0 0 1 0.5 0 0.5 1
8
 1 0 0 1 0.1 0 0.9 1
8
 1 0 0 1 0.4 0 0.6 1
8
 1 0 0 1 0.5 0 0.5 1
8
 1 0 0 1 0 0 1 1
8
 1 0 0 1 0 0 1 1
8
 1 0 0 1 0.1 0 0.9 1
8
 1 0 0 1 0.59 0 0.41 1
8
 1 0 0 1 0 0 1 1
8
 1 0 0 1 0.4 0 0.6 1
8
 1 0 0 1 0 0 1 1
8
 1 0 0 1 0.5 0 0.5 1
8
 1 0 0 1 0.9 0 0.1 1
8
 1 0 0 1 0.5 0 0.5 1
8
 1 0 0 1 0 0 1 1
8
 1 0 0 1 0 0 1 1
8
 1 0 0 1 0.9 0 0.1 1
8
 1 0 0 1 0.4 0 0.6 1
8
 1 0 0 1 0.5 0 0.5 1
8
 1 0 0 1 0.1 0 0.9 1
8
 1 0 0 1 0.4 0 0.6 1
8
 1 0 0 1 0 0 1 1
8
 1 0 0 1 0.5 0 0.5 1
8
 1 0 0 1 0.09 0 0.91 1
8
 1 0 0 1 0 0 1 1
8
 1 0 0 1 0 0 1 1
8
 1 0 0 1 0 0 1 1
8
 1 0 0 1 0 0 1 1
8
 1 0 0 1 0 0 1 1
8
 1 0 0 1 0.5 0 0.5 1
8
 1 0 0 1 0.5 0 0.5 1
8
 1 0 0 1 0.5 0 0.5 1
8
 1 0 0 1 0.5 0 0.5 1
8
 1 0 0 1 0.5 0 0.5 1
8
 1 0 0 1 0 0 1 1
8
 1 0 0 1 0.5 0 0.5 1
8
 1 0 0 1 0.4 0 0.6 1
8
 1 0 0 1 0.7 0 0.3 1
8
 1 0 0 1 0.5 0 0.5 1
8
 1 0 0 1 0.89 0 0.11 1
8
 1 0 0 1 0.5 0 0.5 1
8
 1 0 0 1 0.9 0 0.1 1
8
 1 0 0 1 0 0 1 1
8
 1 0 0 1 0.9 0 0.1 1
8
 1 0 0 1 0.5 0 0.5 1
8
 1 0 0 1 0.5 0 0.5 1
8
 1 0 0 1 0 0 1 1
8
 1 0 0 1 0.75 0 0.25 1
8
 1 0 0 1 0 0 1 1
8
 1 0 0 1 0.09 0 0.91 1
8
 1 0 0 1 0.5 0 0.5 1
8
 1 0 0 1 0 0 1 1
8
 1 0 0 1 0.5 0 0.5 1
8
 1 0 0 1 0 0 1 1
8
 1 0 0 1 0.9 0 0.1 1
8
 1 0 0 1 0.7 0 0.3 1
8
 1 0 0 1 0.4 0 0.6 1
8
 1 0 0 1 0.1 0 0.9 1
8
 1 0 0 1 0 0 1 1
8
 1 0 0 1 0.6 0 0.4 1
8
 1 0 0 1 0.5 0 0.5 1
8
 1 0 0 1 0.4 0 0.6 1
8
 1 0 0 1 0.9 0 0.1 1
8
 1 0 0 1 0.5 0 0.5 1
8
 1 0 0 1 0.9 0 0.1 1
8
 1 0 0 1 0 0 1 1
8
 1 0 0 1 0 0 1 1
8
 1 0 0 1 0 0 1 1
8
 1 0 0 1 0.09 0 0.91 1
8
 1 0 0 1 0 0 1 1
8
 1 0 0 1 0.9 0 0.1 1
8
 1 0 0 1 0.5 0 0.5 1
8
 1 0 0 1 0 0 1 1
8
 1 0 0 1 0.9 0 0.1 1
8
 1 0 0 1 0 0 1 1
8
 1 0 0 1 0.9 0 0.1 1
8
 1 0 0 1 0 0 1 1
8
 1 0 0 1 0.05 0 0.95 1
8
 1 0 0 1 0.5 0 0.5 1
8
 1 0 0 1 0.5 0 0.5 1
8
 1 0 0 1 0 0 1 1
8
 1 0 0 1 0.5 0 0.5 1
8
 1 0 0 1 0 0 1 1
8
 1 0 0 1 0.1 0 0.9 1
8
 1 0 0 1 0 0 1 1
8
 1 0 0 1 0.5 0 0.5 1
8
 1 0 0 1 0 0 1 1
8
 1 0 0 1 0 0 1 1
8
 1 0 0 1 0.9 0 0.1 1
8
 1 0 0 1 0.01 0 0.99 1
2
 0.03 1
2
 0.9995 0.0005
2
 0.99995 5e-05
2
 0.9992 0.0008
2
 0.99999 1e-05
2
 0.9999 0.0001
2
 0.99999 1e-05
2
 0.99975 0.00025
2
 0.999 0.001
2
 0.99999 1e-05
2
 0.99995 5e-05
2
 0.99999 1e-05
2
 0.9999 0.0001
2
 0.9999 0.0001
2
 0.99975 0.00025
2
 0.9999 0.0001
2
 0.999999 1e-06
2
 0.99989 0.00011
2
 0.9999 0.0001
2
 0.9999 0.0001
2
 0.9999 0.0001
2
 0.9999 0.0001
2
 0.99998 2e-05
2
 0.99999 1e-05
2
 0.9999 0.0001
2
 0.99995 5e-05
2
 0.998 0.002
2
 0.99992 8e-05
2
 0.99974 0.00026
2
 0.999998 2e-06
2
 0.99989 0.00011
2
 0.99995 5e-05
2
 0.9999 0.0001
2
 0.99996 4e-05
2
 0.99946 0.00054
2
 0.99981 0.00019
2
 0.99998 2e-05
2
 0.9999 0.0001
2
 0.9999 0.0001
2
 0.9999 0.0001
2
 0.9991 0.0009
2
 0.99992 8e-05
2
 0.9999 0.0001
2
 0.99999 1e-05
2
 0.9999 0.0001
2
 0.99998 2e-05
2
 0.9996 0.0004
2
 0.99996 4e-05
2
 0.99995 5e-05
2
 0.9999 0.0001
2
 0.9995 0.0005
2
 0.999973 2.7e-05
2
 0.99999 1e-05
2
 0.99995 5e-05
2
 0.99999 1e-05
2
 0.9999 0.0001
2
 0.9999 0.0001
2
 0.9991 0.0009
2
 0.9999 0.0001
2
 0.9995 0.0005
2
 0.99995 5e-05
2
 0.9999 0.0001
2
 0.9999 0.0001
2
 0.99985 0.00015
2
 0.9996 0.0004
2
 0.99998 2e-05
2
 0.99999 1e-05
2
 0.9999 0.0001
2
 0.9999 0.0001
2
 0.9998 0.0002
2
 0.9995 0.0005
2
 0.99999 1e-05
2
 0.9995 0.0005
2
 0.99922 0.00078
2
 0.9997 0.0003
2
 0.9998 0.0002
2
 0.99993 7e-05
2
 0.9991 0.0009
2
 0.99995 5e-05
2
 0.9998 0.0002
2
 0.9998 0.0002
2
 0.9998 0.0002
2
 0.9994 0.0006
2
 0.99999 1e-05
2
 0.9999 0.0001
2
 0.9999 0.0001
2
 0.9995 0.0005
2
 0.9997 0.0003
2
 0.9999 0.0001
2
 0.99984 0.00016
2
 0.99993 7e-05
2
 0.9996 0.0004
2
 0.99997 3e-05
2
 0.999 0.001
2
 0.9999 0.0001
2
 0.998 0.002
2
 0.9999 0.0001
2
 0.9999 0.0001
2
 0.99998 2e-05
2
 0.99995 5e-05
2
 0.9995 0.0005
2
 0.9999 0.0001
2
 0.9982 0.0018
2
 0.9999 0.0001
2
 0.99985 0.00015
2
 0.99996 4e-05
2
 0.9999 0.0001
2
 0.9999 0.0001
2
 0.9999 0.0001
2
 0.999977 2.291e-05
2
 0.998 0.002
2
 0.9991 0.0009
2
 0.99989 0.00011
2
 0.99995 5e-05
2
 0.9999 0.0001
2
 1 2e-07
2
 0.99975 0.00025
2
 0.9996 0.0004
2
 0.99995 5e-05
2
 0.9985 0.0015
2
 0.99987 0.00013
2
 0.99995 5e-05
2
 0.99998 2e-05
2
 0.9999 0.0001
2
 1 1.2e-07
2
 0.999 0.001
2
 0.9996 0.0004
2
 0.997 0.003
2
 0.99995 5e-05
2
 0.9999 0.0001
2
 0.99998 2e-05
2
 0.99999 1e-05
2
 0.9999 0.0001
2
 0.9995 0.0005
2
 0.9999 0.0001
2
 0.9999 0.0001
2
 0.999996 4e-06
2
 0.9999 0.0001
2
 1 1.6e-07
2
 0.9999 0.0001
2
 0.9999 0.0001
2
 0.9999 0.0001
2
 0.999907 9.332e-05
2
 0.9999 0.0001
2
 0.9994 0.0006
2
 0.9999 0.0001
2
 0.999969 3.12e-05
2
 0.99995 5e-05
2
 0.999992 8e-06
2
 0.9999 0.0001
2
 0.9999 0.0001
2
 0.99975 0.00025
2
 0.9823 0.0177
2
 0.99999 1e-05
2
 0.9999 0.0001
2
 0.99999 1e-05
2
 0.9998 0.0002
2
 0.9999 0.0001
2
 0.9999 0.0001
2
 0.9999 0.0001
2
 0.999 0.001
2
 0.9995 0.0005
2
 0.99991 9e-05
2
 0.99991 9e-05
2
 0.9999 0.0001
2
 0.9999 0.0001
2
 0.99995 5e-05
2
 0.99997 3e-05
2
 0.99995 5e-05
2
 0.99994 6e-05
2
 0.999 0.001
2
 0.9998 0.0002
2
 0.9999 0.0001
2
 0.9999 0.0001
2
 0.99997 3e-05
2
 0.9999 0.0001
2
 0.9995 0.0005
2
 0.99989 0.00011
2
 0.9999 0.0001
2
 0.9996 0.0004
2
 0.99995 5e-05
2
 0.9999 0.0001
2
 0.99997 3e-05
2
 0.9999 0.0001
2
 0.99999 1e-05
2
 0.9999 0.0001
2
 0.99996 4e-05
2
 0.9999 0.0001
2
 0.9995 0.0005
2
 0.9998 0.0002
2
 0.9994 0.0006
2
 0.99997 3e-05
2
 0.99998 2e-05
2
 0.9999 0.0001
2
 0.99993 7e-05
1
 1

